
  32    4
  10   10   10   10

   0   0   0   0   0   2 2 4 
   5   1   1   1   0   2 7 3 
   9   0   4   5   1   2 20 5 
   4   2   3   2   0   2 10 7 
   5   5   6   6   0   1 6 
   1   6   4   5   0   2 10 8 
   6   5   6   0   3   1 8 
   9   0   5   2   5   2 13 9 
   4   3   3   3   0   2 15 11 
   3   4   4   0   2   3 19 15 12 
   3   3   0   3   5   3 19 16 12 
   2   0   6   5   8   2 18 14 
   4   5   0   6   2   3 31 21 17 
   9   4   4   3   0   2 31 17 
   6   2   5   0   3   1 16 
   8   6   0   2   3   1 18 
   4   5   5   0   4   1 22 
   9   0   5   3   5   1 21 
   3   3   0   3   3   1 21 
   8   1   2   0   4   1 21 
   2   0   3   9   2   1 23 
  10   5   3   7   0   1 23 
   9   7   0   4   5   1 24 
   8   5   3   4   0   1 25 
   9   3   3   4   0   1 26 
   3   5   0   3   8   1 27 
   7   2   0   3   6   2 30 28 
   5   5   0   1   3   1 29 
   2   3   5   8   0   1 32
   9   6   5   0   1   1 32
   2   0   3   4   7   1 32
   0   0   0   0   0   0 
